# Escenario generado automaticamente: normal

param alpha := 0.5;
param fecha_hoy := 45984;
param s := 100;

set I := P1 P2 P3 P4 P5 P6 P7 P8 P9 P10 P11 P12 P13 P14 P15 P16 P17 P18 P19 P20 P21 P22 P23 P24 P25 P26 P27 P28 P29 P30 P31 P32 P33 P34 P35 P36 P37 P38 P39 P40 P41 P42 P43 P44 P45 P46 P47 P48 P49 P50 P51 P52 P53 P54 P55 P56 P57 P58 P59 P60 P61 P62 P63 P64 P65 P66 P67 P68 P69 P70 P71 P72 P73 P74 P75 P76 P77 P78 P79 P80 P81 P82 P83 P84 P85 P86 P87 P88 P89 P90 P91 P92 P93 P94 P95 P96 P97 P98 P99 P100;
set C := C1 C2 C3 C4 C5 C6 C7 C8 C9 C10 C11 C12 C13 C14 C15;
set J := T1 T2 T3 T4 T5 T6 T7 T8 T9 T10;

param dist_c :=
  'C1' 31
  'C2' 69
  'C3' 42
  'C4' 73
  'C5' 11
  'C6' 7
  'C7' 82
  'C8' 46
  'C9' 69
  'C10' 82
  'C11' 62
  'C12' 80
  'C13' 5
  'C14' 29
  'C15' 77
;

param F :=
  'T1' 550
  'T2' 350
  'T3' 550
  'T4' 700
  'T5' 350
  'T6' 550
  'T7' 350
  'T8' 350
  'T9' 700
  'T10' 350
;
param ADRmax :=
  'T1' 0
  'T2' 0
  'T3' 0
  'T4' 5
  'T5' 0
  'T6' 0
  'T7' 0
  'T8' 0
  'T9' 5
  'T10' 0
;
param W :=
  'T1' 2500
  'T2' 1000
  'T3' 2500
  'T4' 3500
  'T5' 1000
  'T6' 2500
  'T7' 1000
  'T8' 1000
  'T9' 3500
  'T10' 1000
;
param V :=
  'T1' 18
  'T2' 10
  'T3' 18
  'T4' 25
  'T5' 10
  'T6' 18
  'T7' 10
  'T8' 10
  'T9' 25
  'T10' 10
;
param Pmax :=
  'T1' 5
  'T2' 5
  'T3' 8
  'T4' 10
  'T5' 4
  'T6' 5
  'T7' 7
  'T8' 5
  'T9' 7
  'T10' 7
;

param pes :=
  'P1' 278
  'P2' 101
  'P3' 260
  'P4' 157
  'P5' 150
  'P6' 137
  'P7' 102
  'P8' 293
  'P9' 135
  'P10' 174
  'P11' 172
  'P12' 266
  'P13' 146
  'P14' 146
  'P15' 120
  'P16' 201
  'P17' 242
  'P18' 200
  'P19' 161
  'P20' 272
  'P21' 155
  'P22' 230
  'P23' 293
  'P24' 150
  'P25' 227
  'P26' 214
  'P27' 167
  'P28' 223
  'P29' 248
  'P30' 138
  'P31' 254
  'P32' 240
  'P33' 247
  'P34' 162
  'P35' 137
  'P36' 103
  'P37' 163
  'P38' 146
  'P39' 167
  'P40' 239
  'P41' 142
  'P42' 206
  'P43' 186
  'P44' 278
  'P45' 254
  'P46' 246
  'P47' 193
  'P48' 227
  'P49' 174
  'P50' 238
  'P51' 172
  'P52' 204
  'P53' 280
  'P54' 205
  'P55' 187
  'P56' 195
  'P57' 151
  'P58' 296
  'P59' 202
  'P60' 229
  'P61' 119
  'P62' 121
  'P63' 122
  'P64' 202
  'P65' 219
  'P66' 193
  'P67' 106
  'P68' 156
  'P69' 251
  'P70' 117
  'P71' 142
  'P72' 120
  'P73' 188
  'P74' 101
  'P75' 188
  'P76' 122
  'P77' 191
  'P78' 128
  'P79' 243
  'P80' 102
  'P81' 131
  'P82' 224
  'P83' 178
  'P84' 230
  'P85' 130
  'P86' 193
  'P87' 261
  'P88' 185
  'P89' 178
  'P90' 179
  'P91' 252
  'P92' 294
  'P93' 110
  'P94' 285
  'P95' 185
  'P96' 144
  'P97' 154
  'P98' 215
  'P99' 171
  'P100' 293
;
param vol :=
  'P1' 2
  'P2' 2
  'P3' 2
  'P4' 3
  'P5' 2
  'P6' 1
  'P7' 1
  'P8' 3
  'P9' 2
  'P10' 3
  'P11' 3
  'P12' 3
  'P13' 3
  'P14' 1
  'P15' 1
  'P16' 3
  'P17' 1
  'P18' 3
  'P19' 1
  'P20' 1
  'P21' 3
  'P22' 3
  'P23' 1
  'P24' 3
  'P25' 3
  'P26' 1
  'P27' 3
  'P28' 2
  'P29' 3
  'P30' 1
  'P31' 1
  'P32' 1
  'P33' 1
  'P34' 2
  'P35' 3
  'P36' 3
  'P37' 2
  'P38' 2
  'P39' 3
  'P40' 1
  'P41' 3
  'P42' 1
  'P43' 2
  'P44' 3
  'P45' 1
  'P46' 3
  'P47' 3
  'P48' 2
  'P49' 3
  'P50' 1
  'P51' 2
  'P52' 3
  'P53' 3
  'P54' 2
  'P55' 2
  'P56' 1
  'P57' 1
  'P58' 2
  'P59' 1
  'P60' 2
  'P61' 3
  'P62' 2
  'P63' 1
  'P64' 2
  'P65' 2
  'P66' 3
  'P67' 3
  'P68' 3
  'P69' 2
  'P70' 1
  'P71' 3
  'P72' 2
  'P73' 2
  'P74' 1
  'P75' 2
  'P76' 3
  'P77' 2
  'P78' 3
  'P79' 2
  'P80' 1
  'P81' 3
  'P82' 1
  'P83' 3
  'P84' 1
  'P85' 2
  'P86' 2
  'P87' 1
  'P88' 3
  'P89' 3
  'P90' 3
  'P91' 2
  'P92' 3
  'P93' 3
  'P94' 3
  'P95' 2
  'P96' 3
  'P97' 1
  'P98' 3
  'P99' 2
  'P100' 3
;
param adr :=
  'P1' 0
  'P2' 1
  'P3' 0
  'P4' 0
  'P5' 0
  'P6' 0
  'P7' 0
  'P8' 0
  'P9' 0
  'P10' 0
  'P11' 0
  'P12' 0
  'P13' 0
  'P14' 0
  'P15' 0
  'P16' 0
  'P17' 0
  'P18' 0
  'P19' 0
  'P20' 0
  'P21' 0
  'P22' 1
  'P23' 1
  'P24' 0
  'P25' 0
  'P26' 0
  'P27' 0
  'P28' 0
  'P29' 0
  'P30' 0
  'P31' 0
  'P32' 0
  'P33' 1
  'P34' 0
  'P35' 0
  'P36' 0
  'P37' 0
  'P38' 1
  'P39' 0
  'P40' 0
  'P41' 0
  'P42' 0
  'P43' 0
  'P44' 0
  'P45' 0
  'P46' 0
  'P47' 0
  'P48' 0
  'P49' 0
  'P50' 0
  'P51' 0
  'P52' 0
  'P53' 0
  'P54' 0
  'P55' 0
  'P56' 0
  'P57' 0
  'P58' 0
  'P59' 0
  'P60' 0
  'P61' 0
  'P62' 0
  'P63' 0
  'P64' 0
  'P65' 0
  'P66' 0
  'P67' 0
  'P68' 0
  'P69' 0
  'P70' 0
  'P71' 0
  'P72' 1
  'P73' 0
  'P74' 1
  'P75' 0
  'P76' 1
  'P77' 0
  'P78' 0
  'P79' 1
  'P80' 0
  'P81' 0
  'P82' 0
  'P83' 0
  'P84' 0
  'P85' 0
  'P86' 0
  'P87' 0
  'P88' 0
  'P89' 0
  'P90' 1
  'P91' 0
  'P92' 0
  'P93' 0
  'P94' 0
  'P95' 0
  'P96' 0
  'P97' 0
  'P98' 0
  'P99' 0
  'P100' 1
;
param t :=
  'P1' 350
  'P2' 350
  'P3' 350
  'P4' 350
  'P5' 350
  'P6' 350
  'P7' 350
  'P8' 350
  'P9' 350
  'P10' 350
  'P11' 350
  'P12' 350
  'P13' 350
  'P14' 350
  'P15' 350
  'P16' 350
  'P17' 350
  'P18' 350
  'P19' 350
  'P20' 350
  'P21' 350
  'P22' 350
  'P23' 350
  'P24' 350
  'P25' 350
  'P26' 350
  'P27' 350
  'P28' 350
  'P29' 350
  'P30' 350
  'P31' 350
  'P32' 350
  'P33' 350
  'P34' 350
  'P35' 350
  'P36' 350
  'P37' 350
  'P38' 350
  'P39' 350
  'P40' 350
  'P41' 350
  'P42' 350
  'P43' 350
  'P44' 350
  'P45' 350
  'P46' 350
  'P47' 350
  'P48' 350
  'P49' 350
  'P50' 350
  'P51' 350
  'P52' 350
  'P53' 350
  'P54' 350
  'P55' 350
  'P56' 350
  'P57' 350
  'P58' 350
  'P59' 350
  'P60' 350
  'P61' 350
  'P62' 350
  'P63' 350
  'P64' 350
  'P65' 350
  'P66' 350
  'P67' 350
  'P68' 350
  'P69' 350
  'P70' 350
  'P71' 350
  'P72' 350
  'P73' 350
  'P74' 350
  'P75' 350
  'P76' 350
  'P77' 350
  'P78' 350
  'P79' 350
  'P80' 350
  'P81' 350
  'P82' 350
  'P83' 350
  'P84' 350
  'P85' 350
  'P86' 350
  'P87' 350
  'P88' 350
  'P89' 350
  'P90' 350
  'P91' 350
  'P92' 350
  'P93' 350
  'P94' 350
  'P95' 350
  'P96' 350
  'P97' 350
  'P98' 350
  'P99' 350
  'P100' 350
;
param fecha :=
  'P1' 45984
  'P2' 45984
  'P3' 45985
  'P4' 45984
  'P5' 45984
  'P6' 45985
  'P7' 45984
  'P8' 45984
  'P9' 45984
  'P10' 45984
  'P11' 45984
  'P12' 45984
  'P13' 45985
  'P14' 45984
  'P15' 45984
  'P16' 45984
  'P17' 45984
  'P18' 45985
  'P19' 45984
  'P20' 45985
  'P21' 45984
  'P22' 45984
  'P23' 45985
  'P24' 45985
  'P25' 45984
  'P26' 45985
  'P27' 45984
  'P28' 45984
  'P29' 45984
  'P30' 45984
  'P31' 45984
  'P32' 45984
  'P33' 45985
  'P34' 45984
  'P35' 45984
  'P36' 45984
  'P37' 45984
  'P38' 45984
  'P39' 45984
  'P40' 45984
  'P41' 45985
  'P42' 45984
  'P43' 45984
  'P44' 45985
  'P45' 45984
  'P46' 45984
  'P47' 45984
  'P48' 45985
  'P49' 45985
  'P50' 45984
  'P51' 45984
  'P52' 45985
  'P53' 45985
  'P54' 45984
  'P55' 45984
  'P56' 45984
  'P57' 45984
  'P58' 45985
  'P59' 45984
  'P60' 45984
  'P61' 45985
  'P62' 45984
  'P63' 45985
  'P64' 45984
  'P65' 45985
  'P66' 45984
  'P67' 45984
  'P68' 45984
  'P69' 45984
  'P70' 45984
  'P71' 45984
  'P72' 45985
  'P73' 45984
  'P74' 45984
  'P75' 45985
  'P76' 45985
  'P77' 45984
  'P78' 45984
  'P79' 45985
  'P80' 45984
  'P81' 45985
  'P82' 45985
  'P83' 45984
  'P84' 45985
  'P85' 45984
  'P86' 45984
  'P87' 45984
  'P88' 45985
  'P89' 45984
  'P90' 45985
  'P91' 45984
  'P92' 45985
  'P93' 45984
  'P94' 45984
  'P95' 45984
  'P96' 45984
  'P97' 45984
  'P98' 45984
  'P99' 45985
  'P100' 45984
;
param cli :=
  'P1' 'C2'
  'P2' 'C3'
  'P3' 'C9'
  'P4' 'C6'
  'P5' 'C12'
  'P6' 'C6'
  'P7' 'C11'
  'P8' 'C7'
  'P9' 'C9'
  'P10' 'C2'
  'P11' 'C15'
  'P12' 'C15'
  'P13' 'C6'
  'P14' 'C12'
  'P15' 'C5'
  'P16' 'C12'
  'P17' 'C3'
  'P18' 'C10'
  'P19' 'C1'
  'P20' 'C1'
  'P21' 'C9'
  'P22' 'C2'
  'P23' 'C10'
  'P24' 'C5'
  'P25' 'C2'
  'P26' 'C5'
  'P27' 'C7'
  'P28' 'C8'
  'P29' 'C12'
  'P30' 'C10'
  'P31' 'C10'
  'P32' 'C12'
  'P33' 'C14'
  'P34' 'C15'
  'P35' 'C3'
  'P36' 'C3'
  'P37' 'C6'
  'P38' 'C2'
  'P39' 'C2'
  'P40' 'C13'
  'P41' 'C4'
  'P42' 'C2'
  'P43' 'C11'
  'P44' 'C7'
  'P45' 'C8'
  'P46' 'C13'
  'P47' 'C6'
  'P48' 'C7'
  'P49' 'C4'
  'P50' 'C9'
  'P51' 'C14'
  'P52' 'C14'
  'P53' 'C14'
  'P54' 'C11'
  'P55' 'C8'
  'P56' 'C13'
  'P57' 'C8'
  'P58' 'C9'
  'P59' 'C14'
  'P60' 'C14'
  'P61' 'C8'
  'P62' 'C9'
  'P63' 'C6'
  'P64' 'C1'
  'P65' 'C2'
  'P66' 'C14'
  'P67' 'C13'
  'P68' 'C6'
  'P69' 'C9'
  'P70' 'C14'
  'P71' 'C11'
  'P72' 'C7'
  'P73' 'C3'
  'P74' 'C14'
  'P75' 'C8'
  'P76' 'C9'
  'P77' 'C10'
  'P78' 'C7'
  'P79' 'C3'
  'P80' 'C14'
  'P81' 'C3'
  'P82' 'C9'
  'P83' 'C2'
  'P84' 'C12'
  'P85' 'C5'
  'P86' 'C2'
  'P87' 'C6'
  'P88' 'C10'
  'P89' 'C7'
  'P90' 'C9'
  'P91' 'C15'
  'P92' 'C5'
  'P93' 'C9'
  'P94' 'C3'
  'P95' 'C11'
  'P96' 'C10'
  'P97' 'C5'
  'P98' 'C7'
  'P99' 'C15'
  'P100' 'C3'
;
